30
0 1 0.67 0.42
0 2 0.42 0.18
0 3 0.57 0.35
0 4 0.51 0.26
0 5 0.57 0.34
0 6 0.7 0.4
0 7 0.4 0.21
0 8 0.69 0.29
0 9 0.68 0.31
0 10 0.55 0.24
0 11 0.64 0.28
0 12 0.28 0.12
0 13 0.6 0.25
0 14 0.61 0.34
0 15 0.72 0.36
0 16 0.46 0.22
0 17 0.23 0.18
0 18 0.54 0.16
0 19 0.78 0.2
0 20 0.58 0.21
0 21 0.61 0.36
0 22 0.52 0.3
0 23 0.65 0.28
0 24 0.57 0.32
0 25 0.64 0.31
0 26 0.48 0.26
0 27 0.72 0.26
0 28 0.57 0.35
0 29 0.7 0.18
1 2 0.26 0.25
1 3 0.6 0.2
1 4 0.71 0.31
1 5 0.73 0.28
1 6 0.6 0.25
1 7 0.52 0.26
1 8 0.47 0.13
1 9 0.5 0.31
1 10 0.68 0.26
1 11 0.52 0.41
1 12 0.76 0.34
1 13 0.53 0.27
1 14 0.26 0.14
1 15 0.44 0.25
1 16 0.66 0.33
1 17 0.69 0.28
1 18 0.38 0.27
1 19 0.74 0.39
1 20 0.3 0.28
1 21 0.63 0.37
1 22 0.44 0.31
1 23 0.62 0.31
1 24 0.35 0.14
1 25 0.23 0.15
1 26 0.48 0.22
1 27 0.4 0.22
1 28 0.47 0.12
1 29 0.44 0.32
2 3 0.5 0.21
2 4 0.45 0.25
2 5 0.52 0.2
2 6 0.64 0.26
2 7 0.34 0.18
2 8 0.73 0.18
2 9 0.51 0.17
2 10 0.64 0.06
2 11 0.7 0.32
2 12 0.62 0.18
2 13 0.54 0.31
2 14 0.52 0.2
2 15 0.54 0.21
2 16 0.66 0.08
2 17 0.61 0.23
2 18 0.12 0.02
2 19 0.48 0.28
2 20 0.36 0.07
2 21 0.67 0.19
2 22 0.47 0.19
2 23 0.58 0.23
2 24 0.27 0.2
2 25 0.49 0.17
2 26 0.72 0.12
2 27 0.56 0.14
2 28 0.6 0.27
2 29 0.42 0.24
3 4 0.75 0.25
3 5 0.8 0.28
3 6 0.42 0.32
3 7 0.59 0.28
3 8 0.48 0.17
3 9 0.74 0.25
3 10 0.38 0.27
3 11 0.73 0.35
3 12 0.76 0.23
3 13 0.4 0.1
3 14 0.63 0.24
3 15 0.58 0.17
3 16 0.33 0.25
3 17 0.48 0.2
3 18 0.62 0.23
3 19 0.4 0.31
3 20 0.7 0.21
3 21 0.54 0.32
3 22 0.36 0.26
3 23 0.72 0.34
3 24 0.42 0.06
3 25 0.83 0.29
3 26 0.64 0.31
3 27 0.62 0.31
3 28 0.82 0.32
3 29 0.66 0.17
4 5 0.53 0.35
4 6 0.74 0.39
4 7 0.34 0.22
4 8 0.47 0.26
4 9 0.4 0.24
4 10 0.44 0.21
4 11 0.62 0.1
4 12 0.58 0.2
4 13 0.54 0.15
4 14 0.6 0.24
4 15 0.68 0.36
4 16 0.48 0.29
4 17 0.34 0.26
4 18 0.33 0.23
4 19 0.53 0.32
4 20 0.57 0.21
4 21 0.69 0.14
4 22 0.44 0.08
4 23 0.48 0.44
4 24 0.68 0.31
4 25 0.66 0.32
4 26 0.71 0.32
4 27 0.59 0.11
4 28 0.6 0.19
4 29 0.58 0.22
5 6 0.5 0.21
5 7 0.79 0.13
5 8 0.41 0.24
5 9 0.76 0.32
5 10 0.8 0.26
5 11 0.81 0.43
5 12 0.58 0.29
5 13 0.74 0.3
5 14 0.54 0.18
5 15 0.42 0.33
5 16 0.72 0.23
5 17 0.54 0.35
5 18 0.64 0.2
5 19 0.82 0.29
5 20 0.65 0.24
5 21 0.49 0.34
5 22 0.52 0.33
5 23 0.79 0.3
5 24 0.38 0.22
5 25 0.68 0.17
5 26 0.64 0.1
5 27 0.54 0.29
5 28 0.42 0.16
5 29 0.73 0.23
6 7 0.73 0.2
6 8 0.56 0.28
6 9 0.58 0.26
6 10 0.78 0.32
6 11 0.72 0.47
6 12 0.56 0.31
6 13 0.74 0.38
6 14 0.34 0.22
6 15 0.86 0.44
6 16 0.7 0.3
6 17 0.56 0.37
6 18 0.52 0.24
6 19 0.76 0.36
6 20 0.66 0.29
6 21 0.84 0.27
6 22 0.56 0.33
6 23 0.64 0.12
6 24 0.67 0.38
6 25 0.66 0.1
6 26 0.38 0.14
6 27 0.48 0.33
6 28 0.72 0.2
6 29 0.52 0.32
7 8 0.8 0.32
7 9 0.54 0.31
7 10 0.64 0.24
7 11 0.75 0.32
7 12 0.66 0.2
7 13 0.2 0.18
7 14 0.53 0.31
7 15 0.52 0.29
7 16 0.48 0.1
7 17 0.5 0.26
7 18 0.46 0.16
7 19 0.54 0.16
7 20 0.49 0.11
7 21 0.84 0.32
7 22 0.76 0.26
7 23 0.55 0.26
7 24 0.46 0.34
7 25 0.75 0.3
7 26 0.56 0.23
7 27 0.58 0.21
7 28 0.37 0.14
7 29 0.68 0.14
8 9 0.62 0.35
8 10 0.6 0.24
8 11 0.5 0.36
8 12 0.46 0.27
8 13 0.6 0.14
8 14 0.44 0.22
8 15 0.56 0.32
8 16 0.48 0.26
8 17 0.68 0.3
8 18 0.67 0.2
8 19 0.65 0.41
8 20 0.52 0.25
8 21 0.68 0.24
8 22 0.42 0.18
8 23 0.72 0.21
8 24 0.66 0.23
8 25 0.66 0.26
8 26 0.58 0.14
8 27 0.58 0.28
8 28 0.62 0.25
8 29 0.8 0.21
9 10 0.82 0.12
9 11 0.48 0.28
9 12 0.77 0.31
9 13 0.74 0.35
9 14 0.24 0.23
9 15 0.56 0.27
9 16 0.57 0.21
9 17 0.74 0.33
9 18 0.39 0.15
9 19 0.73 0.41
9 20 0.66 0.2
9 21 0.51 0.25
9 22 0.42 0.25
9 23 0.46 0.29
9 24 0.58 0.19
9 25 0.37 0.16
9 26 0.5 0.25
9 27 0.38 0.24
9 28 0.62 0.36
9 29 0.46 0.32
10 11 0.58 0.28
10 12 0.56 0.24
10 13 0.66 0.36
10 14 0.76 0.26
10 15 0.58 0.15
10 16 0.71 0.14
10 17 0.78 0.29
10 18 0.71 0.08
10 19 0.78 0.31
10 20 0.7 0.13
10 21 0.58 0.13
10 22 0.58 0.13
10 23 0.68 0.29
10 24 0.6 0.26
10 25 0.45 0.23
10 26 0.79 0.18
10 27 0.68 0.2
10 28 0.52 0.33
10 29 0.5 0.3
11 12 0.36 0.24
11 13 0.65 0.25
11 14 0.61 0.34
11 15 0.54 0.26
11 16 0.4 0.36
11 17 0.54 0.3
11 18 0.64 0.33
11 19 0.52 0.33
11 20 0.56 0.31
11 21 0.86 0.24
11 22 0.38 0.18
11 23 0.84 0.48
11 24 0.43 0.37
11 25 0.75 0.42
11 26 0.46 0.33
11 27 0.5 0.21
11 28 0.5 0.29
11 29 0.59 0.3
12 13 0.68 0.13
12 14 0.72 0.24
12 15 0.54 0.27
12 16 0.64 0.22
12 17 0.28 0.06
12 18 0.5 0.16
12 19 0.74 0.17
12 20 0.46 0.21
12 21 0.5 0.24
12 22 0.69 0.23
12 23 0.65 0.4
12 24 0.58 0.2
12 25 0.72 0.29
12 26 0.76 0.26
12 27 0.86 0.28
12 28 0.62 0.28
12 29 0.42 0.06
13 14 0.73 0.34
13 15 0.32 0.27
13 16 0.28 0.24
13 17 0.64 0.19
13 18 0.66 0.29
13 19 0.74 0.28
13 20 0.55 0.29
13 21 0.76 0.29
13 22 0.76 0.23
13 23 0.35 0.34
13 24 0.62 0.16
13 25 0.7 0.3
13 26 0.36 0.28
13 27 0.78 0.26
13 28 0.57 0.32
13 29 0.58 0.07
14 15 0.7 0.39
14 16 0.81 0.24
14 17 0.72 0.3
14 18 0.58 0.18
14 19 0.7 0.29
14 20 0.54 0.23
14 21 0.54 0.36
14 22 0.66 0.3
14 23 0.66 0.28
14 24 0.56 0.28
14 25 0.49 0.29
14 26 0.48 0.08
14 27 0.14 0.13
14 28 0.38 0.26
14 29 0.65 0.3
15 16 0.6 0.22
15 17 0.58 0.25
15 18 0.42 0.23
15 19 0.58 0.16
15 20 0.23 0.18
15 21 0.76 0.28
15 22 0.65 0.28
15 23 0.66 0.39
15 24 0.38 0.11
15 25 0.44 0.38
15 26 0.48 0.33
15 27 0.6 0.28
15 28 0.78 0.37
15 29 0.66 0.21
16 17 0.36 0.27
16 18 0.54 0.06
16 19 0.46 0.26
16 20 0.69 0.11
16 21 0.57 0.27
16 22 0.69 0.23
16 23 0.47 0.31
16 24 0.7 0.28
16 25 0.52 0.21
16 26 0.64 0.16
16 27 0.9 0.18
16 28 0.56 0.24
16 29 0.68 0.24
17 18 0.62 0.21
17 19 0.58 0.11
17 20 0.52 0.16
17 21 0.59 0.21
17 22 0.41 0.27
17 23 0.58 0.4
17 24 0.34 0.14
17 25 0.54 0.35
17 26 0.48 0.31
17 27 0.66 0.26
17 28 0.34 0.3
17 29 0.54 0.12
18 19 0.36 0.26
18 20 0.48 0.05
18 21 0.6 0.21
18 22 0.59 0.21
18 23 0.7 0.25
18 24 0.39 0.22
18 25 0.61 0.15
18 26 0.6 0.1
18 27 0.44 0.12
18 28 0.48 0.25
18 29 0.54 0.22
19 20 0.81 0.27
19 21 0.54 0.3
19 22 0.59 0.24
19 23 0.78 0.42
19 24 0.75 0.25
19 25 0.57 0.41
19 26 0.61 0.28
19 27 0.56 0.37
19 28 0.6 0.3
19 29 0.55 0.23
20 21 0.56 0.26
20 22 0.42 0.26
20 23 0.72 0.24
20 24 0.61 0.24
20 25 0.5 0.2
20 26 0.71 0.15
20 27 0.4 0.1
20 28 0.6 0.23
20 29 0.68 0.25
21 22 0.54 0.06
21 23 0.84 0.39
21 24 0.46 0.35
21 25 0.48 0.36
21 26 0.53 0.31
21 27 0.53 0.25
21 28 0.78 0.28
21 29 0.42 0.3
22 23 0.71 0.39
22 24 0.74 0.32
22 25 0.67 0.36
22 26 0.56 0.31
22 27 0.8 0.19
22 28 0.75 0.22
22 29 0.88 0.29
23 24 0.41 0.28
23 25 0.39 0.16
23 26 0.5 0.2
23 27 0.8 0.34
23 28 0.7 0.32
23 29 0.7 0.34
24 25 0.58 0.29
24 26 0.51 0.3
24 27 0.42 0.34
24 28 0.68 0.26
24 29 0.69 0.23
25 26 0.46 0.22
25 27 0.6 0.27
25 28 0.39 0.2
25 29 0.33 0.23
26 27 0.62 0.21
26 28 0.54 0.22
26 29 0.79 0.32
27 28 0.52 0.13
27 29 0.76 0.33
28 29 0.36 0.28
